StudentsNr = 10;
InstructorsNr = 26;
DaysNr = 1;
SlotsPerDay = 60;
AvailabilitySlotsLenght = 60;
RoomNr = 1;
ProgrammNr = 2;
DegreeNr = 3;
RolesNr = 4;
CoursesNr = 8;
InstructorsProgramm = [{1}, {2}, {1, 2}, {1, 2}, {1, 2}, {1, 2}, {1, 2}, {1}, {2}, {1, 2}, {2}, {1}, {1, 2}, {1}, {1, 2}, {1, 2}, {1}, {1}, {2}, {2}, {1, 2}, {2}, {2}, {2}, {2}, {2}];
InstructorRolesPerProgramm = [|{6, 7}, {3, 4, 5, 8, 12, 13, 15, 16, 17, 18}, {3, 4, 7, 8, 12, 14, 15, 16}, {4, 5, 6, 10, 14, 17}|{6, 7, 9, 11, 19, 23}, {3, 4, 5, 11, 13, 15, 16, 20, 24, 25, 26}, {3, 4, 7, 9, 11, 15, 16, 25}, {2, 4, 5, 6, 9, 10, 23, 24, 25}|];
InstructorsAvailability = [|0, |0, |1, |1, |0, |1, |1, |1, |0, |0, |0, |0, |0, |1, |1, |0, |0, |0, |0, |1, |0, |0, |1, |0, |1, |1|];
StudentsProgramm = [1, 1, 1, 1, 2, 1, 1, 2, 1, 2];
StudentsDegree = [2, 1, 1, 3, 3, 1, 1, 2, 3, 3];
StudentsSupervisorId = [17, 4, 21, 3, 5, 14, 17, 24, 6, 22];
StudentsCourseIds = [{1, 3, 4, 5, 6, 7, 8}, {1, 3, 4, 5, 8}, {1, 2, 4, 5, 8}, {}, {}, {2, 3, 4, 7, 8}, {1, 3, 6, 7, 8}, {2, 3, 4, 5, 6, 7, 8}, {}, {}];
StudentsAvailability = [|1, |0, |0, |0, |0, |0, |1, |1, |1, |1|];
TheoryticalMinCard = [0, 0, 0, 0, 0, 0, 0, 0, 0, 1];
CoursesInstructorIds = [{1, 3, 4, 5, 6, 7, 8, 10, 12, 14, 16, 17, 20, 21, 22, 23, 25}, {12, 13, 14, 15, 21, 24}, {2, 3, 4, 6, 8, 9, 10, 15, 16, 18, 19, 23, 24}, {1, 3, 4, 5, 6, 8, 9, 12, 13, 14, 16, 17, 20, 23, 24, 26}, {2, 3, 4, 11, 13, 14, 15, 21, 22, 23, 25, 26}, {3, 4, 6, 7, 8, 10, 11, 14, 16, 17, 18, 20, 21, 22, 24, 25}, {2, 4, 5, 6, 8, 10, 11, 12, 13, 14, 17, 19, 20, 22, 24, 25}, {8, 10, 13, 17, 22, 25}];
RolesDemands = [2, 2, 1, 1];
RolesContinuity = [1, 4];
ExamLen = [1, 1, 1, 2, 2, 1, 1, 1, 2, 2];
LunchTsMinLen = 0;
LunchStarts = [26..35];
SupervisorAvailable = 5;
OptimalLunchLenght = [2, 1];
OptimalStartTs = [0, 0];
OptimalFinishTs = [2, 60];
MinimizeRooms = 100;
RolesSoftContinuity = [|1, 2, 3, 4|3, 3, 1, 4|];
SameDegreeInRoom = 10;
Mergeability = 0;
